110 
300 
19.1 24.3 0 0
18.2 24 0 -14
12.6 24.9 -20 -76
14.4 28 -20 -66
16.9 28.1 20 -11
20.7 28.2 20 -20
12.5 26.6 20 -25
21.8 27.3 20 -19
12.5 22.6 20 -26
22.5 17 30 -19
19.9 15 30 -28
14.9 15.1 30 -10
11.5 18.6 30 -18
12.4 29.8 -30 -126
17.8 28.1 -30 -109
9.1 29.8 40 -10
10 32.6 40 -25
13.9 33.1 40 -15
19.95 10.3 40 -19
15.2 8 -40 -129
14.7 31.2 50 -12
7.4 36.5 -50 -73
21 25.5 -50 -73
18 25.3 -10 -104
19.5 24.7 10 -16
21.4 21.8 10 -19
16 21.4 10 -23
18.65 26.2 -10 -103
17.9 28.9 10 -24
14.3 19.9 20 -19
17 19 20 -29
10.8 21 -20 -128
15.7 23.7 10 -14
